NAME: ../File/prFile/tspFile/tsp_file40.tsp
COMMENT: TSP file generated by Python
TYPE: TSP
DIMENSION: 30
EDGE_WEIGHT_TYPE: EUC_2D
NODE_COORD_SECTION
1 41 90
2 75 19
3 21 9
4 76 61
5 85 82
6 61 10
7 33 83
8 47 99
9 62 96
10 20 55
11 41 30
12 97 75
13 40 66
14 1 92
15 92 89
16 42 8
17 63 58
18 28 30
19 8 4
20 63 26
21 37 40
22 37 81
23 4 68
24 5 89
25 18 97
26 80 21
27 25 39
28 25 46
29 15 87
30 86 100
EOF
